# Solution for model r5_t36_m0_8 Batch Number: 4
# Finished Task: 28 / 36
# Makespan: 939.0, Total Distance: 491.0, Total Time: 5.6017
# R O S F Batch
0 0 32 0.0 0.0 -1
1 1 25 0.0 0.0 -1
2 2 13 0.0 0.0 -1
3 3 34 0.0 0.0 -1
4 4 27 0.0 0.0 -1
5 2 -1 708.0 739.0 0
6 1 16 541.0 580.0 0
7 2 5 260.0 289.0 0
8 3 15 675.0 698.0 0
9 -1 -1 -1.0 -1.0 0
10 4 -1 720.0 752.0 1
11 3 18 566.0 600.0 0
12 -1 -1 -1.0 -1.0 2
13 2 14 149.0 183.0 0
14 2 7 215.0 247.0 0
15 3 26 712.0 739.0 0
16 1 23 580.0 616.0 0
17 -1 -1 -1.0 -1.0 0
18 3 8 640.0 675.0 0
19 0 21 709.0 743.0 2
20 4 24 557.0 595.0 0
21 0 22 761.0 797.0 2
22 0 -1 822.0 842.0 2
23 1 30 638.0 668.0 2
24 4 10 681.0 712.0 0
25 1 6 498.0 518.0 0
26 3 36 751.0 775.0 2
27 4 20 511.0 531.0 0
28 -1 -1 -1.0 -1.0 3
29 -1 -1 -1.0 -1.0 3
30 1 40 668.0 695.0 2
31 3 11 530.0 557.0 0
32 0 19 650.0 675.0 0
33 3 -1 905.0 939.0 3
34 3 31 469.0 498.0 0
35 -1 -1 -1.0 -1.0 3
36 3 33 826.0 854.0 2
37 1 -1 829.0 852.0 3
38 -1 -1 -1.0 -1.0 3
39 -1 -1 -1.0 -1.0 3
40 1 37 783.0 815.0 3
